# 1x1 Be/Mo(112) 7-layer Mo 
#*********************************************************************
acell  2.73    4.45    16.0   angstrom 
#*********************************************************************
natom 8  ntypat 2    znucl 42  4  typat  1 1 1 1 1 1 1 2
xred
       0.010774614201      0.500000000000     -0.229443533816
       0.661636769040      0.000000000000     -0.161006059426
       0.315541756932      0.500000000000     -0.079674961222
      -0.014123874551      0.000000000000      0.003477257376
       0.664210198673      0.500000000000      0.086127368473
       0.311278060343      0.000000000000      0.165172539640
       0.031949775050      0.500000000000      0.246445421874
       0.645884822216      0.000000000000      0.299905941457
#******************************************************************** 
kptopt 1  ngkpt  6 4 1   shiftk  0.5  0.5  0.0
#********************************************************************
occopt 7  tsmear 0.008 diemix 0.25   ixc 11   fband 1.0
#********************************************************************
ecut  20.0  nstep 30  enunit 1     toldfe 1.0e-6   
#********************************************************************
irdwfk 1   
#********************************************************************
#ionmov 3  tolmxf 1.0d-3  ntime 5    toldff 1.0d-5  
#******************************************************************** 
