# 1x1 O/Be/Mo(112) 4-layer Mo   20 July 2014
#*********************************************************************
acell  2.73    4.45    12.0   angstrom 
#*********************************************************************
natom 6  ntypat 3    znucl 42  4  8  typat  1 1 1 1 2  3
xred
       0.000000000000      0.000000000000      0.000000000000
       0.666666666667      0.500000000000      0.095000000000
       0.304114840286     -0.004255134591      0.201200000000
       0.039867622925      0.488925342900      0.315000000000
       0.630562196166     -0.035411835505      0.386700000000
       0.553118315867      0.663880646534      0.438700000000
#******************************************************************** 
kptopt 1 ngkpt  4 3 1   shiftk  0.5  0.5  0.0
# prtkpt 1 kptrlen 30.0
#********************************************************************
occopt 7  tsmear 0.008 diemix 0.2   ixc 11   fband 1.0
#********************************************************************
ecut  24.0  nstep 15    toldfe 1.0e-6  # enunit 1     
#********************************************************************
irdwfk 1   
#********************************************************************
# ionmov 3  tolmxf 1.0d-3  ntime 10   toldff 1.0d-5  
# natfixx 2 iatfixx 1 2       
#******************************************************************** 
